% Auto-generated by scripts/generate_dzn.py
% problem_type   = regex
% instance       = regex_92
% source_json    = instances_json/2_high_blowup/regex_92.json
% blowup         = 45.43478260869565
% representation = NFA

mode = 1;

var_count = 32;
Q = 46;
S = 3;
q0 = 1;
F = {44, 45, 46};
d_dfa = array2d(1..46, 1..3, [
  0, 0, 0,
  0, 0, 0,
  0, 0, 0,
  0, 0, 0,
  0, 0, 0,
  0, 0, 0,
  0, 0, 0,
  0, 0, 0,
  0, 0, 0,
  0, 0, 0,
  0, 0, 0,
  0, 0, 0,
  0, 0, 0,
  0, 0, 0,
  0, 0, 0,
  0, 0, 0,
  0, 0, 0,
  0, 0, 0,
  0, 0, 0,
  0, 0, 0,
  0, 0, 0,
  0, 0, 0,
  0, 0, 0,
  0, 0, 0,
  0, 0, 0,
  0, 0, 0,
  0, 0, 0,
  0, 0, 0,
  0, 0, 0,
  0, 0, 0,
  0, 0, 0,
  0, 0, 0,
  0, 0, 0,
  0, 0, 0,
  0, 0, 0,
  0, 0, 0,
  0, 0, 0,
  0, 0, 0,
  0, 0, 0,
  0, 0, 0,
  0, 0, 0,
  0, 0, 0,
  0, 0, 0,
  0, 0, 0,
  0, 0, 0,
  0, 0, 0
]);
d_nfa = array2d(1..46, 1..3, [
  {2}, {3}, {4, 5},
  {2}, {3}, {4, 5},
  {2}, {3}, {4, 5},
  {2}, {3}, {4, 5},
  {}, {}, {6},
  {}, {}, {7},
  {8}, {9}, {10},
  {11}, {12}, {13},
  {11}, {12}, {13},
  {11}, {12}, {13},
  {14}, {15}, {16},
  {14}, {15}, {16},
  {14}, {15}, {16},
  {17}, {18}, {19},
  {17}, {18}, {19},
  {17}, {18}, {19},
  {20}, {21}, {22},
  {20}, {21}, {22},
  {20}, {21}, {22},
  {23}, {24}, {25},
  {23}, {24}, {25},
  {23}, {24}, {25},
  {26}, {27}, {28},
  {26}, {27}, {28},
  {26}, {27}, {28},
  {29}, {30}, {31},
  {29}, {30}, {31},
  {29}, {30}, {31},
  {32}, {33}, {34},
  {32}, {33}, {34},
  {32}, {33}, {34},
  {35}, {36}, {37},
  {35}, {36}, {37},
  {35}, {36}, {37},
  {38}, {39}, {40},
  {38}, {39}, {40},
  {38}, {39}, {40},
  {41}, {42}, {43},
  {41}, {42}, {43},
  {41}, {42}, {43},
  {44}, {45}, {46},
  {44}, {45}, {46},
  {44}, {45}, {46},
  {}, {}, {},
  {}, {}, {},
  {}, {}, {}
]);
